33D32945 STP File, STP Format Version 1.0

SECTION Comments
Name "edge_n15_d4_s43"
Problem "Euclidean Steiner Tree Problem"
Remark "Generated with STPGenerator. 4 dimensions."
END

SECTION Graph
Nodes 15
END

SECTION Coordinates
DDDD 0 0.3921490034 0.3921490034 0.3921490034 0.3921490034
DDDD 1 0.2415533509 0.2415533509 0.2415533509 0.2415533509
DDDD 2 0.4918181642 0.4918181642 0.4918181642 0.4918181642
DDDD 3 0.7429387396 0.7429387396 0.7429387396 0.7429387396
DDDD 4 0.1386943274 0.1386943274 0.1386943274 0.1386943274
DDDD 5 0.9690520419 0.9690520419 0.9690520419 0.9690520419
DDDD 6 0.4979442570 0.4979442570 0.4979442570 0.4979442570
DDDD 7 0.1569527281 0.1569527281 0.1569527281 0.1569527281
DDDD 8 0.6047278813 0.6047278813 0.6047278813 0.6047278813
DDDD 9 0.6099463206 0.6099463206 0.6099463206 0.6099463206
DDDD 10 0.8727000411 0.8727000411 0.8727000411 0.8727000411
DDDD 11 0.9242446869 0.9242446869 0.9242446869 0.9242446869
DDDD 12 0.7194525505 0.7194525505 0.7194525505 0.7194525505
DDDD 13 0.1857139022 0.1857139022 0.1857139022 0.1857139022
DDDD 14 0.0945956191 0.0945956191 0.0945956191 0.0945956191
END
